benchmarks_vrp/CMT3/fixed_c/CMT3_9.vrp
NAME: CMT3_9
TYPE: CVRP
COMMENT: 826.14 - Cluster Nr.9
DIMENSION: 11
CAPACITY: 200
EDGE_WEIGHT_TYPE: EUC_2D
NODE_COORD_TYPE: TWOD_COORDS
NODE_COORD_SECTION: 
8 35 35
11 45 20
4 49 11
3 46 13
6 47 16
7 35 17
2 42 7
5 44 17
9 40 25
10 45 10
1 45 30
DEPOT_SECTION: 
8
-1
DEMAND_SECTION: 
11 11
6 25
5 9
2 5
8 0
10 18
3 8
9 9
7 7
4 18
1 17
EOF
