benchmarks_vrp/CMT3/fixed_c/CMT3_9.tour
NAME: CMT3_9 solution
TYPE: TOUR
TOUR_SECTION:
8 1 11 5 6 3 4 10 2 7 9 -1
-1
EOF